2025-12-04 14:09:19,286 - INFO - 🧮 参数显存统计（单位：MB）
2025-12-04 14:09:19,286 - INFO - [参数显存] euclidean 总计: 1.2797 MB
2025-12-04 14:09:19,286 - INFO - [参数显存] euclidean 长度=119: 0.0354 MB
2025-12-04 14:09:19,286 - INFO - [参数显存] euclidean 长度=238: 0.0708 MB
2025-12-04 14:09:19,286 - INFO - [参数显存] euclidean 长度=358: 0.1065 MB
2025-12-04 14:09:19,286 - INFO - [参数显存] euclidean 长度=478: 0.1422 MB
2025-12-04 14:09:19,286 - INFO - [参数显存] euclidean 长度=597: 0.1776 MB
2025-12-04 14:09:19,286 - INFO - [参数显存] euclidean 长度=717: 0.2133 MB
2025-12-04 14:09:19,286 - INFO - [参数显存] euclidean 长度=837: 0.2490 MB
2025-12-04 14:09:19,286 - INFO - [参数显存] euclidean 长度=957: 0.2848 MB
2025-12-04 14:09:19,286 - INFO - [参数显存] cosine 总计: 1.2797 MB
2025-12-04 14:09:19,286 - INFO - [参数显存] cosine 长度=119: 0.0354 MB
2025-12-04 14:09:19,286 - INFO - [参数显存] cosine 长度=238: 0.0708 MB
2025-12-04 14:09:19,287 - INFO - [参数显存] cosine 长度=358: 0.1065 MB
2025-12-04 14:09:19,287 - INFO - [参数显存] cosine 长度=478: 0.1422 MB
2025-12-04 14:09:19,287 - INFO - [参数显存] cosine 长度=597: 0.1776 MB
2025-12-04 14:09:19,287 - INFO - [参数显存] cosine 长度=717: 0.2133 MB
2025-12-04 14:09:19,287 - INFO - [参数显存] cosine 长度=837: 0.2490 MB
2025-12-04 14:09:19,287 - INFO - [参数显存] cosine 长度=957: 0.2848 MB
2025-12-04 14:09:19,287 - INFO - [参数显存] 模型参数总量: 1,152,556，显存: 4.3967 MB
2025-12-04 14:09:19,981 - INFO - 📌 第一个 epoch：默认所有模块使用 checkpoint
2025-12-04 14:09:21,148 - INFO - Epoch 1 completed in 1.170254 seconds
2025-12-04 14:09:21,651 - INFO - torch.cuda.max_memory_reserved() : 7.45703125
2025-12-04 14:09:21,651 - INFO - torch.cuda.max_memory_allocated() : 2.159245491027832
2025-12-04 14:09:22,222 - INFO - 
[🔁 拟合反向传播时间模型]
2025-12-04 14:09:22,222 - INFO - 总反向传播时间: 0.566079s
2025-12-04 14:09:22,223 - INFO - 拟合模型: backward_total ≈ 2 × (A + B) + b
2025-12-04 14:09:22,223 - INFO - A = 1.014956, B = 0.020213, b = -0.469090s
2025-12-04 14:09:22,270 - INFO - Set parameter LicenseID to value 2706656
2025-12-04 14:09:22,294 - INFO - Set parameter LogToConsole to value 1
2025-12-04 14:09:22,294 - INFO - Set parameter LogFile to value ""
2025-12-04 14:09:22,294 - INFO - Set parameter Threads to value 12
2025-12-04 14:09:22,295 - INFO - Set parameter TimeLimit to value 3600
2025-12-04 14:09:22,295 - INFO - Set parameter OptimalityTol to value 0.0001
2025-12-04 14:09:22,295 - INFO - Set parameter IntFeasTol to value 1e-05
2025-12-04 14:09:22,295 - INFO - Set parameter StartNodeLimit to value 10000000
2025-12-04 14:09:22,360 - INFO - Set parameter TimeLimit to value 3600
2025-12-04 14:09:22,360 - INFO - 
2025-12-04 14:09:22,361 - INFO - 
2025-12-04 14:09:22,361 - INFO - Restarting solve
2025-12-04 14:09:22,361 - INFO - 
2025-12-04 14:09:22,361 - INFO - 
2025-12-04 14:09:22,362 - INFO - Gurobi Optimizer version 12.0.3 build v12.0.3rc0 (linux64 - "Ubuntu 20.04.6 LTS")
2025-12-04 14:09:22,363 - INFO - 
2025-12-04 14:09:22,363 - INFO - CPU model: Intel(R) Xeon(R) Platinum 8260 CPU @ 2.40GHz, instruction set [SSE2|AVX|AVX2|AVX512]
2025-12-04 14:09:22,363 - INFO - Thread count: 48 physical cores, 96 logical processors, using up to 12 threads
2025-12-04 14:09:22,363 - INFO - 
2025-12-04 14:09:22,363 - INFO - Non-default parameters:
2025-12-04 14:09:22,363 - INFO - TimeLimit  3600
2025-12-04 14:09:22,363 - INFO - OptimalityTol  0.0001
2025-12-04 14:09:22,363 - INFO - StartNodeLimit  10000000
2025-12-04 14:09:22,363 - INFO - Threads  12
2025-12-04 14:09:22,363 - INFO - 
2025-12-04 14:09:22,363 - INFO - Optimize a model with 5603 rows, 3584 columns and 15200 nonzeros
2025-12-04 14:09:22,363 - INFO - Model fingerprint: 0x749ed96c
2025-12-04 14:09:22,363 - INFO - Variable types: 1024 continuous, 2560 integer (2560 binary)
2025-12-04 14:09:22,363 - INFO - Coefficient statistics:
2025-12-04 14:09:22,363 - INFO -   Matrix range     [1e+00, 2e+15]
2025-12-04 14:09:22,363 - INFO -   Objective range  [5e+04, 2e+06]
2025-12-04 14:09:22,363 - INFO -   Bounds range     [1e+00, 2e+16]
2025-12-04 14:09:22,364 - INFO -   RHS range        [1e+00, 2e+16]
2025-12-04 14:09:22,364 - INFO - Warning: Model contains large matrix coefficient range
2025-12-04 14:09:22,364 - INFO - Warning: Model contains large rhs
2025-12-04 14:09:22,364 - INFO - Warning: Model contains large bounds
2025-12-04 14:09:22,364 - INFO -          Consider reformulating model or setting NumericFocus parameter
2025-12-04 14:09:22,364 - INFO -          to avoid numerical issues.
2025-12-04 14:09:22,381 - INFO - Presolve removed 4283 rows and 1964 columns
2025-12-04 14:09:22,381 - INFO - Presolve time: 0.02s
2025-12-04 14:09:22,381 - INFO - Presolved: 1320 rows, 1620 columns, 4514 nonzeros
2025-12-04 14:09:22,382 - INFO - Variable types: 0 continuous, 1620 integer (1095 binary)
2025-12-04 14:09:22,395 - INFO - 
2025-12-04 14:09:22,395 - INFO - Root relaxation: objective 2.675552e+07, 413 iterations, 0.00 seconds (0.00 work units)
2025-12-04 14:09:22,398 - INFO - 
2025-12-04 14:09:22,398 - INFO -     Nodes    |    Current Node    |     Objective Bounds      |     Work
2025-12-04 14:09:22,398 - INFO -  Expl Unexpl |  Obj  Depth IntInf | Incumbent    BestBd   Gap | It/Node Time
2025-12-04 14:09:22,398 - INFO - 
2025-12-04 14:09:22,398 - INFO -      0     0 2.6756e+07    0    9          - 2.6756e+07      -     -    0s
2025-12-04 14:09:22,421 - INFO - H    0     0                    4.013329e+07 2.6756e+07  33.3%     -    0s
2025-12-04 14:09:22,425 - INFO - *    0     0               0    2.675552e+07 2.6756e+07  0.00%     -    0s
2025-12-04 14:09:22,426 - INFO - 
2025-12-04 14:09:22,426 - INFO - Cutting planes:
2025-12-04 14:09:22,426 - INFO -   Cover: 9
2025-12-04 14:09:22,427 - INFO - 
2025-12-04 14:09:22,427 - INFO - Explored 1 nodes (422 simplex iterations) in 0.06 seconds (0.03 work units)
2025-12-04 14:09:22,427 - INFO - Thread count was 12 (of 96 available processors)
2025-12-04 14:09:22,427 - INFO - 
2025-12-04 14:09:22,427 - INFO - Solution count 2: 2.67555e+07 4.01333e+07 
2025-12-04 14:09:22,427 - INFO - 
2025-12-04 14:09:22,427 - INFO - Optimal solution found (tolerance 1.00e-04)
2025-12-04 14:09:22,427 - INFO - Best objective 2.675552400000e+07, best bound 2.675552400000e+07, gap 0.0000%
2025-12-04 14:09:22,438 - INFO - 规划前的显存GB：18.0
2025-12-04 14:09:22,439 - INFO - 规划后的显存GB：16.1383638381958
2025-12-04 14:09:22,439 - INFO - 规划前的显存GB：18.0
2025-12-04 14:09:22,439 - INFO - 规划后的显存GB：6.607023321092129
2025-12-04 14:09:22,439 - INFO - ✅ 最优策略：[1, 1, 1, 1, 1, 1, 1, 1, 1, 1, 1, 1, 1, 1, 1, 1]
2025-12-04 14:09:22,439 - INFO - 📌 checkpoint 的欧氏长度:, []
2025-12-04 14:09:22,439 - INFO - 📌 checkpoint 的余弦长度:, []
2025-12-04 14:09:22,439 - INFO - 💾 最终显存峰值：%.2f MB % 14207.38395690918
2025-12-04 14:09:22,439 - INFO - 🕒 显存计划规划时间: 0.22 秒
2025-12-04 14:09:22,439 - INFO - Epoch 2 completed in 0.787956 seconds
2025-12-04 14:09:22,440 - INFO - torch.cuda.max_memory_reserved() : 7.45703125
2025-12-04 14:09:22,440 - INFO - torch.cuda.max_memory_allocated() : 2.159245491027832
2025-12-04 14:09:22,843 - INFO - Epoch 3 completed in 0.403126 seconds
2025-12-04 14:09:22,844 - INFO - 
====================== [第1个 Epoch 收集统计数据] ======================
2025-12-04 14:09:22,844 - INFO - 
🔍 EUCLIDEAN modules:
2025-12-04 14:09:22,844 - INFO - [Shapelet 119] forward_avg=0.018976s over 2 calls | peak=574.70MB | final=0.00MB
2025-12-04 14:09:22,844 - INFO - [Shapelet 238] forward_avg=0.010302s over 2 calls | peak=1015.30MB | final=0.00MB
2025-12-04 14:09:22,844 - INFO - [Shapelet 358] forward_avg=0.016330s over 2 calls | peak=1333.82MB | final=0.00MB
2025-12-04 14:09:22,844 - INFO - [Shapelet 478] forward_avg=0.020005s over 2 calls | peak=1527.39MB | final=0.00MB
2025-12-04 14:09:22,844 - INFO - [Shapelet 597] forward_avg=0.019545s over 2 calls | peak=1593.80MB | final=0.00MB
2025-12-04 14:09:22,845 - INFO - [Shapelet 717] forward_avg=0.016904s over 2 calls | peak=1532.89MB | final=0.00MB
2025-12-04 14:09:22,845 - INFO - [Shapelet 837] forward_avg=0.013830s over 2 calls | peak=1346.26MB | final=0.00MB
2025-12-04 14:09:22,845 - INFO - [Shapelet 957] forward_avg=0.012831s over 2 calls | peak=1033.37MB | final=0.00MB
2025-12-04 14:09:22,845 - INFO - 
🔍 COSINE modules:
2025-12-04 14:09:22,845 - INFO - [Shapelet 119] forward_avg=0.002125s over 2 calls | peak=377.76MB | final=0.00MB
2025-12-04 14:09:22,845 - INFO - [Shapelet 238] forward_avg=0.003181s over 2 calls | peak=671.28MB | final=0.00MB
2025-12-04 14:09:22,845 - INFO - [Shapelet 358] forward_avg=0.003988s over 2 calls | peak=882.25MB | final=0.00MB
2025-12-04 14:09:22,845 - INFO - [Shapelet 478] forward_avg=0.007329s over 2 calls | peak=1009.34MB | final=0.00MB
2025-12-04 14:09:22,845 - INFO - [Shapelet 597] forward_avg=0.010910s over 2 calls | peak=1052.88MB | final=0.00MB
2025-12-04 14:09:22,845 - INFO - [Shapelet 717] forward_avg=0.005445s over 2 calls | peak=1012.70MB | final=0.00MB
2025-12-04 14:09:22,846 - INFO - [Shapelet 837] forward_avg=0.004173s over 2 calls | peak=885.75MB | final=0.00MB
2025-12-04 14:09:22,846 - INFO - [Shapelet 957] forward_avg=0.003284s over 2 calls | peak=676.20MB | final=0.00MB
2025-12-04 14:09:22,846 - INFO - 
🔍 CROSS modules:
2025-12-04 14:09:22,846 - INFO - [Shapelet 119] forward_avg=0.000538s over 2 calls
2025-12-04 14:09:22,846 - INFO - [Shapelet 238] forward_avg=0.000525s over 2 calls
2025-12-04 14:09:22,846 - INFO - [Shapelet 358] forward_avg=0.000664s over 2 calls
2025-12-04 14:09:22,846 - INFO - [Shapelet 478] forward_avg=0.000767s over 2 calls
2025-12-04 14:09:22,846 - INFO - [Shapelet 597] forward_avg=0.000673s over 2 calls
2025-12-04 14:09:22,846 - INFO - [Shapelet 717] forward_avg=0.000609s over 2 calls
2025-12-04 14:09:22,846 - INFO - [Shapelet 837] forward_avg=0.000679s over 2 calls
2025-12-04 14:09:22,847 - INFO - [Shapelet 957] forward_avg=0.000597s over 2 calls
2025-12-04 14:09:22,847 - INFO - 
💾 模型第一次反向传播阶段的显存峰值（所有模块中的最大值）: 10768.31 MB
2025-12-04 14:09:22,847 - INFO - 
💾 模型初始显存: 6.18 MB
2025-12-04 14:09:22,847 - INFO - =======================================================================

2025-12-04 14:09:22,847 - INFO - torch.cuda.max_memory_reserved() : 15.03515625
2025-12-04 14:09:22,848 - INFO - torch.cuda.max_memory_allocated() : 13.558463096618652
2025-12-04 14:09:23,243 - INFO - Epoch 4 completed in 0.394570 seconds
2025-12-04 14:09:23,243 - INFO - torch.cuda.max_memory_reserved() : 15.03515625
2025-12-04 14:09:23,243 - INFO - torch.cuda.max_memory_allocated() : 13.559176921844482
2025-12-04 14:09:23,636 - INFO - Epoch 5 completed in 0.391852 seconds
2025-12-04 14:09:23,636 - INFO - torch.cuda.max_memory_reserved() : 15.03515625
2025-12-04 14:09:23,636 - INFO - torch.cuda.max_memory_allocated() : 13.559176921844482
2025-12-04 14:09:24,054 - INFO - Epoch 6 completed in 0.417657 seconds
2025-12-04 14:09:24,055 - INFO - torch.cuda.max_memory_reserved() : 15.03515625
2025-12-04 14:09:24,056 - INFO - torch.cuda.max_memory_allocated() : 13.559176921844482
2025-12-04 14:09:24,455 - INFO - Epoch 7 completed in 0.398398 seconds
2025-12-04 14:09:24,456 - INFO - torch.cuda.max_memory_reserved() : 15.037109375
2025-12-04 14:09:24,457 - INFO - torch.cuda.max_memory_allocated() : 13.559176921844482
2025-12-04 14:09:24,857 - INFO - Epoch 8 completed in 0.399395 seconds
2025-12-04 14:09:24,857 - INFO - torch.cuda.max_memory_reserved() : 15.037109375
2025-12-04 14:09:24,858 - INFO - torch.cuda.max_memory_allocated() : 13.559176921844482
2025-12-04 14:09:25,261 - INFO - Epoch 9 completed in 0.401982 seconds
2025-12-04 14:09:25,262 - INFO - torch.cuda.max_memory_reserved() : 15.037109375
2025-12-04 14:09:25,262 - INFO - torch.cuda.max_memory_allocated() : 13.559176921844482
2025-12-04 14:09:25,668 - INFO - Epoch 10 completed in 0.404542 seconds
2025-12-04 14:09:26,132 - INFO - torch.cuda.max_memory_reserved() : 15.037109375
2025-12-04 14:09:26,132 - INFO - torch.cuda.max_memory_allocated() : 13.559176921844482
2025-12-04 14:09:26,133 - INFO - !!!采用策略后的几个epoch 平均时间:0.401440292596817
2025-12-04 14:09:26,133 - INFO - 



